peakDumbCharging = 11100; 
Machine = anon_enum(16); 
machineSpeed = [3700,3700,3700,3700,3700,3700,3700,3700,3700,3700,3700,3700,3700,3700,3700,3700]; 
machineLoad = [3700,3700,3700,3700,3700,3700,3700,3700,3700,3700,3700,3700,3700,3700,3700,3700]; 
Car = anon_enum(16); 
demandCar = [6320,3160,840,34760,6680,2200,13800,4520,5080,2280,3600,2240,2880,1920,3080,10360]; 
arrivalCar = [69,64,64,63,60,57,55,48,46,45,44,41,40,40,39,36]; 
departureCar = [72,67,66,77,63,59,72,50,49,46,53,43,42,42,41,40]; 
